\* column_knapsack_problem *\
Minimize
knapsack: 25 col_11 + 25 col_14 + 24 col_15 + 24 col_18 + 24 col_19
 + 24 col_21 + 25 col_22 + 24 col_25 + 25 col_3 + 25 col_35 + 24 col_36
 + 24 col_39 + 25 col_43 + col_44 + 2 col_45 + 25 col_47 + 25 col_49
 + 24 col_6 + 24 col_7 + 24 col_8
Subject To
sensitivity: col_15 + col_18 + col_19 + col_21 + col_25 + col_36 + col_39
 + 24 col_44 + 23 col_45 + col_6 + col_7 + col_8 >= 5.7
Bounds
 col_11 <= 1
 col_14 <= 1
 col_15 <= 1
 col_18 <= 1
 col_19 <= 1
 col_21 <= 1
 col_22 <= 1
 col_25 <= 1
 col_3 <= 1
 col_35 <= 1
 col_36 <= 1
 col_39 <= 1
 col_43 <= 1
 col_44 <= 1
 col_45 <= 1
 col_47 <= 1
 col_49 <= 1
 col_6 <= 1
 col_7 <= 1
 col_8 <= 1
End
